8213
2172
8143
2037
7579
8036
2240
4325
9944
5853
9081
5401
2704
9025
7970
936
8168
5670
5361
7285
6971
8692
7347
7929
9884
5933
5885
2119
8610
8988
1629
6384
491
2036
8914
1963
4607
9671
4688
5114
1306
8020
2926
1998
697
6303
711
568
9455
5307
